WARNING: for repeatability, setting FPU to use double precision
============================[ Problem Statistics ]=============================
|                                                                             |
|  Number of variables:        126995                                         |
|  Number of clauses:          296493                                         |
|  Parse time:                   0.07 s                                       |
|                                                                             |
c ============================[ Search Statistics ]==============================
c | Conflicts |          ORIGINAL         |          LEARNT          | Progress |
c |           |    Vars  Clauses Literals |    Limit  Clauses Lit/Cl |          |
c ===============================================================================
c Switched to VSIDS.
c Switched to LRB.
c Switched to VSIDS.
c Switched to LRB.
c Switched to VSIDS.
c Switched to LRB.
c Switched to VSIDS.
c Switched to LRB.
c Switched to VSIDS.
c Switched to LRB.
c Switched to VSIDS.
c Switched to LRB.
c Switched to VSIDS.
c Switched to LRB.
c Switched to VSIDS.
c Switched to LRB.
c Switched to VSIDS.
c Switched to LRB.
c Switched to VSIDS.
c ===============================================================================
restarts                  : 9570
conflicts                 : 2029371        (1617 /sec)
decisions                 : 33857322       (0.00 % random) (26978 /sec)
propagations              : 2572496428     (2049772 /sec)
conflict literals         : 234218610      (26.41 % deleted)

conflicts w/ DIP found    : 1450295        (71.47 % of conflicts)
conflicts w/ dangerous DIP: 0              (0.00 % of conflicts)
conflicts w/ DIP-learning : 207            (0.01 % of conflicts)
decisions on ext vars     : 386            (0.00 % of decisions)
total ext vars            : 89          
tried delete ext vars     : 1           
deleted ext vars          : 1           
max ext vars              : 88          

Memory used               : 333.00 MB
CPU time                  : 1255.02 s
DIP computation time      : 89.9708 s (7.17 % of total time)
ER_sel time               : 3.39902 s
ER_add time               : 0.001562 s
ER_delC time              : 0 s
ER_delV time              : 0.001142 s
ER_sub time               : 4.2134 s
ER_stat time              : 0 s

UNSATISFIABLE
